WARNING: for repeatability, setting FPU to use double precision
============================[ Problem Statistics ]=============================
|                                                                             |
|  Number of variables:           270                                         |
|  Number of clauses:            6663                                         |
|  Parse time:                   0.00 s                                       |
|                                                                             |
c ============================[ Search Statistics ]==============================
c | Conflicts |          ORIGINAL         |          LEARNT          | Progress |
c |           |    Vars  Clauses Literals |    Limit  Clauses Lit/Cl |          |
c ===============================================================================
c Switched to VSIDS.
c Switched to LRB.
c Switched to VSIDS.
c Switched to LRB.
c Switched to VSIDS.
c Switched to LRB.
c Switched to VSIDS.
c Switched to LRB.
c Switched to VSIDS.
c Switched to LRB.
c Switched to VSIDS.
c Switched to LRB.
c Switched to VSIDS.
c Switched to LRB.
c Switched to VSIDS.
c Switched to LRB.
c Switched to VSIDS.
c Switched to LRB.
CAREFUL: the definition is falsified in conflict 8810291 at DL 37 (has happened 1 times)
c Switched to VSIDS.
c Switched to LRB.
c Switched to VSIDS.
c Switched to LRB.
c Switched to VSIDS.
c Switched to LRB.
c Switched to VSIDS.
c Switched to LRB.
c Switched to VSIDS.
c Switched to LRB.
c Switched to VSIDS.
c Switched to LRB.
c Switched to VSIDS.
c Switched to LRB.
c Switched to VSIDS.
c Switched to LRB.
c Switched to VSIDS.
c Switched to LRB.
c Switched to VSIDS.
c Switched to LRB.
c ===============================================================================
restarts                  : 61289
conflicts                 : 21549538       (6129 /sec)
decisions                 : 32024815       (0.00 % random) (9109 /sec)
propagations              : 12433728251    (3536570 /sec)
conflict literals         : 750263320      (44.28 % deleted)

conflicts w/ DIP found    : 10823739       (50.23 % of conflicts)
conflicts w/ dangerous DIP: 2              (0.00 % of conflicts)
conflicts w/ DIP-learning : 606107         (2.81 % of conflicts)
decisions on ext vars     : 1172476        (3.66 % of decisions)
total ext vars            : 163712      
tried delete ext vars     : 151129      
deleted ext vars          : 151129      
max ext vars              : 12583       

Memory used               : 289.00 MB
CPU time                  : 3515.76 s
DIP computation time      : 114.105 s (3.25 % of total time)
ER_sel time               : 21.9993 s
ER_add time               : 0.473467 s
ER_delC time              : 0 s
ER_delV time              : 0.960863 s
ER_sub time               : 26.2185 s
ER_stat time              : 0 s

INDETERMINATE
